c Standarized MaxSat Instance
c{
c "sha1sum": "a6f17a4bc11fb128ed855c2e47f3e0a201bd3a54",
c "nvars": 313,
c "ncls": 897,
c "nhards": 0,
c "nhard_len_stats":
c    { "min": 0, "max": 0, "ave": 0.00,
c      "stddev": 0.00 },
c "nsofts": 897,
c "nsoft_len_stats":
c    { "min": 1, "max": 4, "ave": 2.93,
c      "stddev": 0.84 },
c "nsoft_wts": 2,
c "soft_wt_stats":
c    { "min": 1, "max": 61, "ave": 56.99,
c      "stddev": 14.99 }
c}
c------------------------------------------------------------
c This instance encodes a supposedly trivial MaxSAT formula.
c The hard part of the formula encodes a cardinality constraint:
c     x1 + ... + x60 <= 28
c Cardinality encoding used is 'mtot'.
c The soft part prefers all the variables to be set to true:
c     x1 = 1, ..., x60 = 1
c As a result, the optimum cost for this formula is 32.
c
p wcnf 313 897 51118
1 1 0
1 2 0
1 3 0
1 4 0
1 5 0
1 6 0
1 7 0
1 8 0
1 9 0
1 10 0
1 11 0
1 12 0
1 13 0
1 14 0
1 15 0
1 16 0
1 17 0
1 18 0
1 19 0
1 20 0
1 21 0
1 22 0
1 23 0
1 24 0
1 25 0
1 26 0
1 27 0
1 28 0
1 29 0
1 30 0
1 31 0
1 32 0
1 33 0
1 34 0
1 35 0
1 36 0
1 37 0
1 38 0
1 39 0
1 40 0
1 41 0
1 42 0
1 43 0
1 44 0
1 45 0
1 46 0
1 47 0
1 48 0
1 49 0
1 50 0
1 51 0
1 52 0
1 53 0
1 54 0
1 55 0
1 56 0
1 57 0
1 58 0
1 59 0
1 60 0
61 -89 69 95 0
61 -90 70 95 0
61 -91 71 95 0
61 -92 72 95 0
61 -93 73 95 0
61 -94 74 95 0
61 -79 69 95 0
61 -80 70 95 0
61 -81 71 95 0
61 -82 72 95 0
61 -83 73 95 0
61 -84 74 95 0
61 -79 -89 70 95 0
61 -79 -90 71 95 0
61 -79 -91 72 95 0
61 -79 -92 73 95 0
61 -79 -93 74 95 0
61 -79 -94 95 0
61 -80 -89 71 95 0
61 -80 -90 72 95 0
61 -80 -91 73 95 0
61 -80 -92 74 95 0
61 -80 -93 95 0
61 -80 -94 69 0
61 -81 -89 72 95 0
61 -81 -90 73 95 0
61 -81 -91 74 95 0
61 -81 -92 95 0
61 -81 -93 69 0
61 -81 -94 70 0
61 -82 -89 73 95 0
61 -82 -90 74 95 0
61 -82 -91 95 0
61 -82 -92 69 0
61 -82 -93 70 0
61 -82 -94 71 0
61 -83 -89 74 95 0
61 -83 -90 95 0
61 -83 -91 69 0
61 -83 -92 70 0
61 -83 -93 71 0
61 -83 -94 72 0
61 -84 -89 95 0
61 -84 -90 69 0
61 -84 -91 70 0
61 -84 -92 71 0
61 -84 -93 72 0
61 -84 -94 73 0
61 -95 61 0
61 -85 61 0
61 -95 -85 62 0
61 -86 62 0
61 -95 -86 63 0
61 -87 63 0
61 -95 -87 64 0
61 -88 64 0
61 -95 -88 65 0
61 -75 61 0
61 -95 -75 62 0
61 -76 62 0
61 -95 -76 63 0
61 -77 63 0
61 -95 -77 64 0
61 -78 64 0
61 -95 -78 65 0
61 -75 -85 62 0
61 -95 -75 -85 63 0
61 -75 -86 63 0
61 -95 -75 -86 64 0
61 -75 -87 64 0
61 -95 -75 -87 65 0
61 -75 -88 65 0
61 -95 -75 -88 66 0
61 -76 -85 63 0
61 -95 -76 -85 64 0
61 -76 -86 64 0
61 -95 -76 -86 65 0
61 -76 -87 65 0
61 -95 -76 -87 66 0
61 -76 -88 66 0
61 -95 -76 -88 67 0
61 -77 -85 64 0
61 -95 -77 -85 65 0
61 -77 -86 65 0
61 -95 -77 -86 66 0
61 -77 -87 66 0
61 -95 -77 -87 67 0
61 -77 -88 67 0
61 -95 -77 -88 68 0
61 -78 -85 65 0
61 -95 -78 -85 66 0
61 -78 -86 66 0
61 -95 -78 -86 67 0
61 -78 -87 67 0
61 -95 -78 -87 68 0
61 -78 -88 68 0
61 -95 -78 -88 0
61 -106 89 112 0
61 -107 90 112 0
61 -108 91 112 0
61 -109 92 112 0
61 -110 93 112 0
61 -111 94 112 0
61 -98 89 112 0
61 -99 90 112 0
61 -100 91 112 0
61 -101 92 112 0
61 -102 93 112 0
61 -103 94 112 0
61 -98 -106 90 112 0
61 -98 -107 91 112 0
61 -98 -108 92 112 0
61 -98 -109 93 112 0
61 -98 -110 94 112 0
61 -98 -111 112 0
61 -99 -106 91 112 0
61 -99 -107 92 112 0
61 -99 -108 93 112 0
61 -99 -109 94 112 0
61 -99 -110 112 0
61 -99 -111 89 0
61 -100 -106 92 112 0
61 -100 -107 93 112 0
61 -100 -108 94 112 0
61 -100 -109 112 0
61 -100 -110 89 0
61 -100 -111 90 0
61 -101 -106 93 112 0
61 -101 -107 94 112 0
61 -101 -108 112 0
61 -101 -109 89 0
61 -101 -110 90 0
61 -101 -111 91 0
61 -102 -106 94 112 0
61 -102 -107 112 0
61 -102 -108 89 0
61 -102 -109 90 0
61 -102 -110 91 0
61 -102 -111 92 0
61 -103 -106 112 0
61 -103 -107 89 0
61 -103 -108 90 0
61 -103 -109 91 0
61 -103 -110 92 0
61 -103 -111 93 0
61 -112 85 0
61 -104 85 0
61 -112 -104 86 0
61 -105 86 0
61 -112 -105 87 0
61 -96 85 0
61 -112 -96 86 0
61 -97 86 0
61 -112 -97 87 0
61 -96 -104 86 0
61 -112 -96 -104 87 0
61 -96 -105 87 0
61 -112 -96 -105 88 0
61 -97 -104 87 0
61 -112 -97 -104 88 0
61 -97 -105 88 0
61 -112 -97 -105 0
61 -121 106 127 0
61 -122 107 127 0
61 -123 108 127 0
61 -124 109 127 0
61 -125 110 127 0
61 -126 111 127 0
61 -114 106 127 0
61 -115 107 127 0
61 -116 108 127 0
61 -117 109 127 0
61 -118 110 127 0
61 -119 111 127 0
61 -114 -121 107 127 0
61 -114 -122 108 127 0
61 -114 -123 109 127 0
61 -114 -124 110 127 0
61 -114 -125 111 127 0
61 -114 -126 127 0
61 -115 -121 108 127 0
61 -115 -122 109 127 0
61 -115 -123 110 127 0
61 -115 -124 111 127 0
61 -115 -125 127 0
61 -115 -126 106 0
61 -116 -121 109 127 0
61 -116 -122 110 127 0
61 -116 -123 111 127 0
61 -116 -124 127 0
61 -116 -125 106 0
61 -116 -126 107 0
61 -117 -121 110 127 0
61 -117 -122 111 127 0
61 -117 -123 127 0
61 -117 -124 106 0
61 -117 -125 107 0
61 -117 -126 108 0
61 -118 -121 111 127 0
61 -118 -122 127 0
61 -118 -123 106 0
61 -118 -124 107 0
61 -118 -125 108 0
61 -118 -126 109 0
61 -119 -121 127 0
61 -119 -122 106 0
61 -119 -123 107 0
61 -119 -124 108 0
61 -119 -125 109 0
61 -119 -126 110 0
61 -127 104 0
61 -120 104 0
61 -127 -120 105 0
61 -113 104 0
61 -127 -113 105 0
61 -113 -120 105 0
61 -127 -113 -120 0
61 -134 128 0
61 -135 129 0
61 -132 128 0
61 -133 129 0
61 -132 -134 129 0
61 -132 -135 130 0
61 -133 -134 130 0
61 -133 -135 131 0
61 -57 134 0
61 -56 134 0
61 -56 -57 135 0
61 -55 132 0
61 -54 132 0
61 -54 -55 133 0
61 -60 136 0
61 -139 136 0
61 -140 137 0
61 -139 -60 137 0
61 -140 -60 138 0
61 -59 139 0
61 -58 139 0
61 -58 -59 140 0
61 -136 121 141 0
61 -137 122 141 0
61 -138 123 141 0
61 -128 121 141 0
61 -129 122 141 0
61 -130 123 141 0
61 -131 124 141 0
61 -128 -136 122 141 0
61 -128 -137 123 141 0
61 -128 -138 124 141 0
61 -129 -136 123 141 0
61 -129 -137 124 141 0
61 -129 -138 125 141 0
61 -130 -136 124 141 0
61 -130 -137 125 141 0
61 -130 -138 126 141 0
61 -131 -136 125 141 0
61 -131 -137 126 141 0
61 -131 -138 141 0
61 -141 120 0
61 -148 142 0
61 -149 143 0
61 -146 142 0
61 -147 143 0
61 -146 -148 143 0
61 -146 -149 144 0
61 -147 -148 144 0
61 -147 -149 145 0
61 -49 148 0
61 -48 148 0
61 -48 -49 149 0
61 -47 146 0
61 -46 146 0
61 -46 -47 147 0
61 -156 150 0
61 -157 151 0
61 -154 150 0
61 -155 151 0
61 -154 -156 151 0
61 -154 -157 152 0
61 -155 -156 152 0
61 -155 -157 153 0
61 -53 156 0
61 -52 156 0
61 -52 -53 157 0
61 -51 154 0
61 -50 154 0
61 -50 -51 155 0
61 -150 114 158 0
61 -151 115 158 0
61 -152 116 158 0
61 -153 117 158 0
61 -142 114 158 0
61 -143 115 158 0
61 -144 116 158 0
61 -145 117 158 0
61 -142 -150 115 158 0
61 -142 -151 116 158 0
61 -142 -152 117 158 0
61 -142 -153 118 158 0
61 -143 -150 116 158 0
61 -143 -151 117 158 0
61 -143 -152 118 158 0
61 -143 -153 119 158 0
61 -144 -150 117 158 0
61 -144 -151 118 158 0
61 -144 -152 119 158 0
61 -144 -153 158 0
61 -145 -150 118 158 0
61 -145 -151 119 158 0
61 -145 -152 158 0
61 -145 -153 114 0
61 -158 113 0
61 -167 98 173 0
61 -168 99 173 0
61 -169 100 173 0
61 -170 101 173 0
61 -171 102 173 0
61 -172 103 173 0
61 -160 98 173 0
61 -161 99 173 0
61 -162 100 173 0
61 -163 101 173 0
61 -164 102 173 0
61 -165 103 173 0
61 -160 -167 99 173 0
61 -160 -168 100 173 0
61 -160 -169 101 173 0
61 -160 -170 102 173 0
61 -160 -171 103 173 0
61 -160 -172 173 0
61 -161 -167 100 173 0
61 -161 -168 101 173 0
61 -161 -169 102 173 0
61 -161 -170 103 173 0
61 -161 -171 173 0
61 -161 -172 98 0
61 -162 -167 101 173 0
61 -162 -168 102 173 0
61 -162 -169 103 173 0
61 -162 -170 173 0
61 -162 -171 98 0
61 -162 -172 99 0
61 -163 -167 102 173 0
61 -163 -168 103 173 0
61 -163 -169 173 0
61 -163 -170 98 0
61 -163 -171 99 0
61 -163 -172 100 0
61 -164 -167 103 173 0
61 -164 -168 173 0
61 -164 -169 98 0
61 -164 -170 99 0
61 -164 -171 100 0
61 -164 -172 101 0
61 -165 -167 173 0
61 -165 -168 98 0
61 -165 -169 99 0
61 -165 -170 100 0
61 -165 -171 101 0
61 -165 -172 102 0
61 -173 96 0
61 -166 96 0
61 -173 -166 97 0
61 -159 96 0
61 -173 -159 97 0
61 -159 -166 97 0
61 -173 -159 -166 0
61 -180 174 0
61 -181 175 0
61 -178 174 0
61 -179 175 0
61 -178 -180 175 0
61 -178 -181 176 0
61 -179 -180 176 0
61 -179 -181 177 0
61 -42 180 0
61 -41 180 0
61 -41 -42 181 0
61 -40 178 0
61 -39 178 0
61 -39 -40 179 0
61 -45 182 0
61 -185 182 0
61 -186 183 0
61 -185 -45 183 0
61 -186 -45 184 0
61 -44 185 0
61 -43 185 0
61 -43 -44 186 0
61 -182 167 187 0
61 -183 168 187 0
61 -184 169 187 0
61 -174 167 187 0
61 -175 168 187 0
61 -176 169 187 0
61 -177 170 187 0
61 -174 -182 168 187 0
61 -174 -183 169 187 0
61 -174 -184 170 187 0
61 -175 -182 169 187 0
61 -175 -183 170 187 0
61 -175 -184 171 187 0
61 -176 -182 170 187 0
61 -176 -183 171 187 0
61 -176 -184 172 187 0
61 -177 -182 171 187 0
61 -177 -183 172 187 0
61 -177 -184 187 0
61 -187 166 0
61 -194 188 0
61 -195 189 0
61 -192 188 0
61 -193 189 0
61 -192 -194 189 0
61 -192 -195 190 0
61 -193 -194 190 0
61 -193 -195 191 0
61 -34 194 0
61 -33 194 0
61 -33 -34 195 0
61 -32 192 0
61 -31 192 0
61 -31 -32 193 0
61 -202 196 0
61 -203 197 0
61 -200 196 0
61 -201 197 0
61 -200 -202 197 0
61 -200 -203 198 0
61 -201 -202 198 0
61 -201 -203 199 0
61 -38 202 0
61 -37 202 0
61 -37 -38 203 0
61 -36 200 0
61 -35 200 0
61 -35 -36 201 0
61 -196 160 204 0
61 -197 161 204 0
61 -198 162 204 0
61 -199 163 204 0
61 -188 160 204 0
61 -189 161 204 0
61 -190 162 204 0
61 -191 163 204 0
61 -188 -196 161 204 0
61 -188 -197 162 204 0
61 -188 -198 163 204 0
61 -188 -199 164 204 0
61 -189 -196 162 204 0
61 -189 -197 163 204 0
61 -189 -198 164 204 0
61 -189 -199 165 204 0
61 -190 -196 163 204 0
61 -190 -197 164 204 0
61 -190 -198 165 204 0
61 -190 -199 204 0
61 -191 -196 164 204 0
61 -191 -197 165 204 0
61 -191 -198 204 0
61 -191 -199 160 0
61 -204 159 0
61 -215 79 221 0
61 -216 80 221 0
61 -217 81 221 0
61 -218 82 221 0
61 -219 83 221 0
61 -220 84 221 0
61 -207 79 221 0
61 -208 80 221 0
61 -209 81 221 0
61 -210 82 221 0
61 -211 83 221 0
61 -212 84 221 0
61 -207 -215 80 221 0
61 -207 -216 81 221 0
61 -207 -217 82 221 0
61 -207 -218 83 221 0
61 -207 -219 84 221 0
61 -207 -220 221 0
61 -208 -215 81 221 0
61 -208 -216 82 221 0
61 -208 -217 83 221 0
61 -208 -218 84 221 0
61 -208 -219 221 0
61 -208 -220 79 0
61 -209 -215 82 221 0
61 -209 -216 83 221 0
61 -209 -217 84 221 0
61 -209 -218 221 0
61 -209 -219 79 0
61 -209 -220 80 0
61 -210 -215 83 221 0
61 -210 -216 84 221 0
61 -210 -217 221 0
61 -210 -218 79 0
61 -210 -219 80 0
61 -210 -220 81 0
61 -211 -215 84 221 0
61 -211 -216 221 0
61 -211 -217 79 0
61 -211 -218 80 0
61 -211 -219 81 0
61 -211 -220 82 0
61 -212 -215 221 0
61 -212 -216 79 0
61 -212 -217 80 0
61 -212 -218 81 0
61 -212 -219 82 0
61 -212 -220 83 0
61 -221 75 0
61 -213 75 0
61 -221 -213 76 0
61 -214 76 0
61 -221 -214 77 0
61 -205 75 0
61 -221 -205 76 0
61 -206 76 0
61 -221 -206 77 0
61 -205 -213 76 0
61 -221 -205 -213 77 0
61 -205 -214 77 0
61 -221 -205 -214 78 0
61 -206 -213 77 0
61 -221 -206 -213 78 0
61 -206 -214 78 0
61 -221 -206 -214 0
61 -230 215 236 0
61 -231 216 236 0
61 -232 217 236 0
61 -233 218 236 0
61 -234 219 236 0
61 -235 220 236 0
61 -223 215 236 0
61 -224 216 236 0
61 -225 217 236 0
61 -226 218 236 0
61 -227 219 236 0
61 -228 220 236 0
61 -223 -230 216 236 0
61 -223 -231 217 236 0
61 -223 -232 218 236 0
61 -223 -233 219 236 0
61 -223 -234 220 236 0
61 -223 -235 236 0
61 -224 -230 217 236 0
61 -224 -231 218 236 0
61 -224 -232 219 236 0
61 -224 -233 220 236 0
61 -224 -234 236 0
61 -224 -235 215 0
61 -225 -230 218 236 0
61 -225 -231 219 236 0
61 -225 -232 220 236 0
61 -225 -233 236 0
61 -225 -234 215 0
61 -225 -235 216 0
61 -226 -230 219 236 0
61 -226 -231 220 236 0
61 -226 -232 236 0
61 -226 -233 215 0
61 -226 -234 216 0
61 -226 -235 217 0
61 -227 -230 220 236 0
61 -227 -231 236 0
61 -227 -232 215 0
61 -227 -233 216 0
61 -227 -234 217 0
61 -227 -235 218 0
61 -228 -230 236 0
61 -228 -231 215 0
61 -228 -232 216 0
61 -228 -233 217 0
61 -228 -234 218 0
61 -228 -235 219 0
61 -236 213 0
61 -229 213 0
61 -236 -229 214 0
61 -222 213 0
61 -236 -222 214 0
61 -222 -229 214 0
61 -236 -222 -229 0
61 -243 237 0
61 -244 238 0
61 -241 237 0
61 -242 238 0
61 -241 -243 238 0
61 -241 -244 239 0
61 -242 -243 239 0
61 -242 -244 240 0
61 -27 243 0
61 -26 243 0
61 -26 -27 244 0
61 -25 241 0
61 -24 241 0
61 -24 -25 242 0
61 -30 245 0
61 -248 245 0
61 -249 246 0
61 -248 -30 246 0
61 -249 -30 247 0
61 -29 248 0
61 -28 248 0
61 -28 -29 249 0
61 -245 230 250 0
61 -246 231 250 0
61 -247 232 250 0
61 -237 230 250 0
61 -238 231 250 0
61 -239 232 250 0
61 -240 233 250 0
61 -237 -245 231 250 0
61 -237 -246 232 250 0
61 -237 -247 233 250 0
61 -238 -245 232 250 0
61 -238 -246 233 250 0
61 -238 -247 234 250 0
61 -239 -245 233 250 0
61 -239 -246 234 250 0
61 -239 -247 235 250 0
61 -240 -245 234 250 0
61 -240 -246 235 250 0
61 -240 -247 250 0
61 -250 229 0
61 -257 251 0
61 -258 252 0
61 -255 251 0
61 -256 252 0
61 -255 -257 252 0
61 -255 -258 253 0
61 -256 -257 253 0
61 -256 -258 254 0
61 -19 257 0
61 -18 257 0
61 -18 -19 258 0
61 -17 255 0
61 -16 255 0
61 -16 -17 256 0
61 -265 259 0
61 -266 260 0
61 -263 259 0
61 -264 260 0
61 -263 -265 260 0
61 -263 -266 261 0
61 -264 -265 261 0
61 -264 -266 262 0
61 -23 265 0
61 -22 265 0
61 -22 -23 266 0
61 -21 263 0
61 -20 263 0
61 -20 -21 264 0
61 -259 223 267 0
61 -260 224 267 0
61 -261 225 267 0
61 -262 226 267 0
61 -251 223 267 0
61 -252 224 267 0
61 -253 225 267 0
61 -254 226 267 0
61 -251 -259 224 267 0
61 -251 -260 225 267 0
61 -251 -261 226 267 0
61 -251 -262 227 267 0
61 -252 -259 225 267 0
61 -252 -260 226 267 0
61 -252 -261 227 267 0
61 -252 -262 228 267 0
61 -253 -259 226 267 0
61 -253 -260 227 267 0
61 -253 -261 228 267 0
61 -253 -262 267 0
61 -254 -259 227 267 0
61 -254 -260 228 267 0
61 -254 -261 267 0
61 -254 -262 223 0
61 -267 222 0
61 -276 207 282 0
61 -277 208 282 0
61 -278 209 282 0
61 -279 210 282 0
61 -280 211 282 0
61 -281 212 282 0
61 -269 207 282 0
61 -270 208 282 0
61 -271 209 282 0
61 -272 210 282 0
61 -273 211 282 0
61 -274 212 282 0
61 -269 -276 208 282 0
61 -269 -277 209 282 0
61 -269 -278 210 282 0
61 -269 -279 211 282 0
61 -269 -280 212 282 0
61 -269 -281 282 0
61 -270 -276 209 282 0
61 -270 -277 210 282 0
61 -270 -278 211 282 0
61 -270 -279 212 282 0
61 -270 -280 282 0
61 -270 -281 207 0
61 -271 -276 210 282 0
61 -271 -277 211 282 0
61 -271 -278 212 282 0
61 -271 -279 282 0
61 -271 -280 207 0
61 -271 -281 208 0
61 -272 -276 211 282 0
61 -272 -277 212 282 0
61 -272 -278 282 0
61 -272 -279 207 0
61 -272 -280 208 0
61 -272 -281 209 0
61 -273 -276 212 282 0
61 -273 -277 282 0
61 -273 -278 207 0
61 -273 -279 208 0
61 -273 -280 209 0
61 -273 -281 210 0
61 -274 -276 282 0
61 -274 -277 207 0
61 -274 -278 208 0
61 -274 -279 209 0
61 -274 -280 210 0
61 -274 -281 211 0
61 -282 205 0
61 -275 205 0
61 -282 -275 206 0
61 -268 205 0
61 -282 -268 206 0
61 -268 -275 206 0
61 -282 -268 -275 0
61 -289 283 0
61 -290 284 0
61 -287 283 0
61 -288 284 0
61 -287 -289 284 0
61 -287 -290 285 0
61 -288 -289 285 0
61 -288 -290 286 0
61 -12 289 0
61 -11 289 0
61 -11 -12 290 0
61 -10 287 0
61 -9 287 0
61 -9 -10 288 0
61 -15 291 0
61 -294 291 0
61 -295 292 0
61 -294 -15 292 0
61 -295 -15 293 0
61 -14 294 0
61 -13 294 0
61 -13 -14 295 0
61 -291 276 296 0
61 -292 277 296 0
61 -293 278 296 0
61 -283 276 296 0
61 -284 277 296 0
61 -285 278 296 0
61 -286 279 296 0
61 -283 -291 277 296 0
61 -283 -292 278 296 0
61 -283 -293 279 296 0
61 -284 -291 278 296 0
61 -284 -292 279 296 0
61 -284 -293 280 296 0
61 -285 -291 279 296 0
61 -285 -292 280 296 0
61 -285 -293 281 296 0
61 -286 -291 280 296 0
61 -286 -292 281 296 0
61 -286 -293 296 0
61 -296 275 0
61 -303 297 0
61 -304 298 0
61 -301 297 0
61 -302 298 0
61 -301 -303 298 0
61 -301 -304 299 0
61 -302 -303 299 0
61 -302 -304 300 0
61 -4 303 0
61 -3 303 0
61 -3 -4 304 0
61 -2 301 0
61 -1 301 0
61 -1 -2 302 0
61 -311 305 0
61 -312 306 0
61 -309 305 0
61 -310 306 0
61 -309 -311 306 0
61 -309 -312 307 0
61 -310 -311 307 0
61 -310 -312 308 0
61 -8 311 0
61 -7 311 0
61 -7 -8 312 0
61 -6 309 0
61 -5 309 0
61 -5 -6 310 0
61 -305 269 313 0
61 -306 270 313 0
61 -307 271 313 0
61 -308 272 313 0
61 -297 269 313 0
61 -298 270 313 0
61 -299 271 313 0
61 -300 272 313 0
61 -297 -305 270 313 0
61 -297 -306 271 313 0
61 -297 -307 272 313 0
61 -297 -308 273 313 0
61 -298 -305 271 313 0
61 -298 -306 272 313 0
61 -298 -307 273 313 0
61 -298 -308 274 313 0
61 -299 -305 272 313 0
61 -299 -306 273 313 0
61 -299 -307 274 313 0
61 -299 -308 313 0
61 -300 -305 273 313 0
61 -300 -306 274 313 0
61 -300 -307 313 0
61 -300 -308 269 0
61 -313 268 0
61 -65 0
61 -66 0
61 -67 0
61 -68 0
61 -64 -69 0
61 -64 -70 0
61 -64 -71 0
61 -64 -72 0
61 -64 -73 0
61 -64 -74 0
